letting presetvals be [
    [-1, 2,-1,-2,-1, 3,-1],
    [-1,-2,-1, 1,-1,-2, 3],
    [-1,-2, 2,-2,-1,-2, 2],
    [ 6,-1,-1,-2,-1, 3,-1],
    [-2, 1,-2,-2,-2,-1,-2],
    [-1,-1,-1,-2,-1,-1, 2],
    [ 2,-2,-1, 3,-1,-2,-1],
    [-1,-2,-1,-2, 2,-2,-1],
    [-1, 1,-1,-2,-1, 6,-1]
]
letting op be [1,3,3,3,3,3,1,1,1,2,2,1,2,1,1,3,3,1,1,1]
